(declare-const IPAddr String)
(assert (>= 7 (str.len IPAddr)))
(assert (<= (str.len IPAddr) 15))
(assert (str.in.re IPAddr (re.++ (re.++ (re.+ (re.+ (re.range "0" "9"))) (re.range "0" "9")) (re.* (re.++ (re.range "0" "2") (re.++ (re.++ (re.+ (re.+ (re.range "0" "9"))) (re.range "0" "9")) (re.++ (re.* (re.++ (re.range "0" "2") (re.++ (re.++ (re.+ (re.+ (re.range "0" "9"))) (re.range "0" "9")) (re.++ (re.* (re.++ (re.range "0" "2") (re.++ (re.* (re.++ (re.+ (re.+ (re.range "0" "9"))) (re.range "0" "9"))) (re.++ (re.range "0" "2") (str.to.re "."))))) (str.to.re "."))))) (str.to.re "."))))))))
(assert (not (str.in.re IPAddr (re.++ (re.range "0" "5") (re.++ (re.union (re.++ (re.++ (re.range "0" "9") (str.to.re "2")) (re.++ (re.range "0" "9") (re.++ (re.opt (re.range "0" "9")) (re.opt (re.union (str.to.re "0") (str.to.re "1")))))) (re.range "0" "4")) (re.union (str.to.re "25") (re.++ (re.range "0" "5") (re.++ (re.++ (re.union (re.++ (re.++ (re.range "0" "9") (str.to.re "2")) (re.++ (re.range "0" "9") (re.++ (re.opt (re.range "0" "9")) (re.opt (re.union (str.to.re "0") (str.to.re "1")))))) (re.range "0" "4")) (re.union (str.to.re "25") (re.++ (re.range "0" "5") (re.++ (re.++ (re.union (re.++ (re.++ (re.range "0" "9") (str.to.re "2")) (re.++ (re.range "0" "9") (re.++ (re.opt (re.range "0" "9")) (re.opt (re.union (str.to.re "0") (str.to.re "1")))))) (re.range "0" "4")) (re.union (str.to.re "25") (re.++ (re.++ (re.range "0" "5") (re.union (re.++ (re.++ (re.range "0" "9") (str.to.re "2")) (re.++ (re.range "0" "9") (re.++ (re.opt (str.to.re "1")) (re.opt (re.union (str.to.re "0") (re.range "0" "9")))))) (re.range "0" "4"))) (re.union (str.to.re "25") (str.to.re "."))))) (str.to.re "."))))) (str.to.re ".")))))))))
(check-sat)
